\ENCODING=ISO-8859-1
\Problem name: 

Minimize
 obj1: 12 x_0_1 + 18 x_0_2 + 15 x_0_3 + 20 x_0_4 + 18 x_0_5 + 23 x_0_6
       + 25 x_0_7 + 28 x_0_8 + 12 x_1_0 + 15 x_1_2 + 20 x_1_3 + 22 x_1_4
       + 18 x_1_5 + 26 x_1_6 + 30 x_1_7 + 24 x_1_8 + 18 x_2_0 + 15 x_2_1
       + 10 x_2_3 + 16 x_2_4 + 22 x_2_5 + 12 x_2_6 + 28 x_2_7 + 20 x_2_8
       + 15 x_3_0 + 20 x_3_1 + 10 x_3_2 + 11 x_3_4 + 17 x_3_5 + 21 x_3_6
       + 25 x_3_7 + 14 x_3_8 + 20 x_4_0 + 22 x_4_1 + 16 x_4_2 + 11 x_4_3
       + 16 x_4_5 + 15 x_4_6 + 23 x_4_7 + 18 x_4_8 + 18 x_5_0 + 18 x_5_1
       + 22 x_5_2 + 17 x_5_3 + 16 x_5_4 + 12 x_5_6 + 19 x_5_7 + 10 x_5_8
       + 23 x_6_0 + 26 x_6_1 + 12 x_6_2 + 21 x_6_3 + 15 x_6_4 + 12 x_6_5
       + 8 x_6_7 + 1000000 x_6_8 + 25 x_7_0 + 30 x_7_1 + 28 x_7_2 + 25 x_7_3
       + 23 x_7_4 + 19 x_7_5 + 8 x_7_6 + 1000000 x_7_8 + 28 x_8_0 + 24 x_8_1
       + 20 x_8_2 + 14 x_8_3 + 18 x_8_4 + 10 x_8_5 + 1000000 x_8_6
       + 1000000 x_8_7 + 0 y_0 + 0 y_1 + 0 y_2 + 0 y_3 + 0 y_4 + 0 y_5 + 0 y_6
       + 0 y_7 + 0 y_8 + 50 z_0_1 + 50 z_0_2 + 50 z_0_3 + 50 z_0_4 + 50 z_0_5
       + 50 z_0_6 + 50 z_0_7 + 50 z_0_8 + 50 z_1_2 + 50 z_1_3 + 50 z_1_4
       + 50 z_1_5 + 50 z_1_6 + 50 z_1_7 + 50 z_1_8 + 50 z_2_1 + 50 z_2_3
       + 50 z_2_4 + 50 z_2_5 + 50 z_2_6 + 50 z_2_7 + 50 z_2_8 + 50 z_3_1
       + 50 z_3_2 + 50 z_3_4 + 50 z_3_5 + 50 z_3_6 + 50 z_3_7 + 50 z_3_8
       + 50 z_4_1 + 50 z_4_2 + 50 z_4_3 + 50 z_4_5 + 50 z_4_6 + 50 z_4_7
       + 50 z_4_8 + 50 z_5_1 + 50 z_5_2 + 50 z_5_3 + 50 z_5_4 + 50 z_5_6
       + 50 z_5_7 + 50 z_5_8 + 50 z_6_1 + 50 z_6_2 + 50 z_6_3 + 50 z_6_4
       + 50 z_6_5 + 50 z_6_7 + 50 z_6_8 + 50 z_7_1 + 50 z_7_2 + 50 z_7_3
       + 50 z_7_4 + 50 z_7_5 + 50 z_7_6 + 50 z_7_8 + 50 z_8_1 + 50 z_8_2
       + 50 z_8_3 + 50 z_8_4 + 50 z_8_5 + 50 z_8_6 + 50 z_8_7 + 0 u_0
Subject To
 salida_deposito:  x_0_1 + x_0_2 + x_0_3 + x_0_4 + x_0_5 + x_0_6 + x_0_7
                   + x_0_8  = 1
 llegada_deposito: x_1_0 + x_2_0 + x_3_0 + x_4_0 + x_5_0 + x_6_0 + x_7_0
                   + x_8_0  = 1
 llegada_1:        x_0_1 + x_2_1 + x_3_1 + x_4_1 + x_5_1 + x_6_1 + x_7_1
                   + x_8_1  = 1
 llegada_2:        x_0_2 + x_1_2 + x_3_2 + x_4_2 + x_5_2 + x_6_2 + x_7_2
                   + x_8_2  = 1
 llegada_3:        x_0_3 + x_1_3 + x_2_3 + x_4_3 + x_5_3 + x_6_3 + x_7_3
                   + x_8_3  = 1
 llegada_4:        x_0_4 + x_1_4 + x_2_4 + x_3_4 + x_5_4 + x_6_4 + x_7_4
                   + x_8_4  = 1
 llegada_5:        x_0_5 + x_1_5 + x_2_5 + x_3_5 + x_4_5 + x_6_5 + x_7_5
                   + x_8_5  = 1
 llegada_6:        x_0_6 + x_1_6 + x_2_6 + x_3_6 + x_4_6 + x_5_6 + x_7_6
                   + x_8_6  = 1
 llegada_7:        x_0_7 + x_1_7 + x_2_7 + x_3_7 + x_4_7 + x_5_7 + x_6_7
                   + x_8_7  = 1
 llegada_8:        x_0_8 + x_1_8 + x_2_8 + x_3_8 + x_4_8 + x_5_8 + x_6_8
                   + x_7_8  = 1
 salida_1:         x_1_0 + x_1_2 + x_1_3 + x_1_4 + x_1_5 + x_1_6 + x_1_7
                   + x_1_8  = 1
 salida_2:         x_2_0 + x_2_1 + x_2_3 + x_2_4 + x_2_5 + x_2_6 + x_2_7
                   + x_2_8  = 1
 salida_3:         x_3_0 + x_3_1 + x_3_2 + x_3_4 + x_3_5 + x_3_6 + x_3_7
                   + x_3_8  = 1
 salida_4:         x_4_0 + x_4_1 + x_4_2 + x_4_3 + x_4_5 + x_4_6 + x_4_7
                   + x_4_8  = 1
 salida_5:         x_5_0 + x_5_1 + x_5_2 + x_5_3 + x_5_4 + x_5_6 + x_5_7
                   + x_5_8  = 1
 salida_6:         x_6_0 + x_6_1 + x_6_2 + x_6_3 + x_6_4 + x_6_5 + x_6_7
                   + x_6_8  = 1
 salida_7:         x_7_0 + x_7_1 + x_7_2 + x_7_3 + x_7_4 + x_7_5 + x_7_6
                   + x_7_8  = 1
 salida_8:         x_8_0 + x_8_1 + x_8_2 + x_8_3 + x_8_4 + x_8_5 + x_8_6
                   + x_8_7  = 1
 mtz_1_2:          8 x_1_2 + u_1 - u_2 <= 7
 mtz_1_3:          8 x_1_3 + u_1 - u_3 <= 7
 mtz_1_4:          8 x_1_4 + u_1 - u_4 <= 7
 mtz_1_5:          8 x_1_5 + u_1 - u_5 <= 7
 mtz_1_6:          8 x_1_6 + u_1 - u_6 <= 7
 mtz_1_7:          8 x_1_7 + u_1 - u_7 <= 7
 mtz_1_8:          8 x_1_8 + u_1 - u_8 <= 7
 mtz_2_1:          8 x_2_1 - u_1 + u_2 <= 7
 mtz_2_3:          8 x_2_3 + u_2 - u_3 <= 7
 mtz_2_4:          8 x_2_4 + u_2 - u_4 <= 7
 mtz_2_5:          8 x_2_5 + u_2 - u_5 <= 7
 mtz_2_6:          8 x_2_6 + u_2 - u_6 <= 7
 mtz_2_7:          8 x_2_7 + u_2 - u_7 <= 7
 mtz_2_8:          8 x_2_8 + u_2 - u_8 <= 7
 mtz_3_1:          8 x_3_1 - u_1 + u_3 <= 7
 mtz_3_2:          8 x_3_2 - u_2 + u_3 <= 7
 mtz_3_4:          8 x_3_4 + u_3 - u_4 <= 7
 mtz_3_5:          8 x_3_5 + u_3 - u_5 <= 7
 mtz_3_6:          8 x_3_6 + u_3 - u_6 <= 7
 mtz_3_7:          8 x_3_7 + u_3 - u_7 <= 7
 mtz_3_8:          8 x_3_8 + u_3 - u_8 <= 7
 mtz_4_1:          8 x_4_1 - u_1 + u_4 <= 7
 mtz_4_2:          8 x_4_2 - u_2 + u_4 <= 7
 mtz_4_3:          8 x_4_3 - u_3 + u_4 <= 7
 mtz_4_5:          8 x_4_5 + u_4 - u_5 <= 7
 mtz_4_6:          8 x_4_6 + u_4 - u_6 <= 7
 mtz_4_7:          8 x_4_7 + u_4 - u_7 <= 7
 mtz_4_8:          8 x_4_8 + u_4 - u_8 <= 7
 mtz_5_1:          8 x_5_1 - u_1 + u_5 <= 7
 mtz_5_2:          8 x_5_2 - u_2 + u_5 <= 7
 mtz_5_3:          8 x_5_3 - u_3 + u_5 <= 7
 mtz_5_4:          8 x_5_4 - u_4 + u_5 <= 7
 mtz_5_6:          8 x_5_6 + u_5 - u_6 <= 7
 mtz_5_7:          8 x_5_7 + u_5 - u_7 <= 7
 mtz_5_8:          8 x_5_8 + u_5 - u_8 <= 7
 mtz_6_1:          8 x_6_1 - u_1 + u_6 <= 7
 mtz_6_2:          8 x_6_2 - u_2 + u_6 <= 7
 mtz_6_3:          8 x_6_3 - u_3 + u_6 <= 7
 mtz_6_4:          8 x_6_4 - u_4 + u_6 <= 7
 mtz_6_5:          8 x_6_5 - u_5 + u_6 <= 7
 mtz_6_7:          8 x_6_7 + u_6 - u_7 <= 7
 mtz_6_8:          8 x_6_8 + u_6 - u_8 <= 7
 mtz_7_1:          8 x_7_1 - u_1 + u_7 <= 7
 mtz_7_2:          8 x_7_2 - u_2 + u_7 <= 7
 mtz_7_3:          8 x_7_3 - u_3 + u_7 <= 7
 mtz_7_4:          8 x_7_4 - u_4 + u_7 <= 7
 mtz_7_5:          8 x_7_5 - u_5 + u_7 <= 7
 mtz_7_6:          8 x_7_6 - u_6 + u_7 <= 7
 mtz_7_8:          8 x_7_8 + u_7 - u_8 <= 7
 mtz_8_1:          8 x_8_1 - u_1 + u_8 <= 7
 mtz_8_2:          8 x_8_2 - u_2 + u_8 <= 7
 mtz_8_3:          8 x_8_3 - u_3 + u_8 <= 7
 mtz_8_4:          8 x_8_4 - u_4 + u_8 <= 7
 mtz_8_5:          8 x_8_5 - u_5 + u_8 <= 7
 mtz_8_6:          8 x_8_6 - u_6 + u_8 <= 7
 mtz_8_7:          8 x_8_7 - u_7 + u_8 <= 7
Bounds
 0 <= x_0_1 <= 1
 0 <= x_0_2 <= 1
 0 <= x_0_3 <= 1
 0 <= x_0_4 <= 1
 0 <= x_0_5 <= 1
 0 <= x_0_6 <= 1
 0 <= x_0_7 <= 1
 0 <= x_0_8 <= 1
 0 <= x_1_0 <= 1
 0 <= x_1_2 <= 1
 0 <= x_1_3 <= 1
 0 <= x_1_4 <= 1
 0 <= x_1_5 <= 1
 0 <= x_1_6 <= 1
 0 <= x_1_7 <= 1
 0 <= x_1_8 <= 1
 0 <= x_2_0 <= 1
 0 <= x_2_1 <= 1
 0 <= x_2_3 <= 1
 0 <= x_2_4 <= 1
 0 <= x_2_5 <= 1
 0 <= x_2_6 <= 1
 0 <= x_2_7 <= 1
 0 <= x_2_8 <= 1
 0 <= x_3_0 <= 1
 0 <= x_3_1 <= 1
 0 <= x_3_2 <= 1
 0 <= x_3_4 <= 1
 0 <= x_3_5 <= 1
 0 <= x_3_6 <= 1
 0 <= x_3_7 <= 1
 0 <= x_3_8 <= 1
 0 <= x_4_0 <= 1
 0 <= x_4_1 <= 1
 0 <= x_4_2 <= 1
 0 <= x_4_3 <= 1
 0 <= x_4_5 <= 1
 0 <= x_4_6 <= 1
 0 <= x_4_7 <= 1
 0 <= x_4_8 <= 1
 0 <= x_5_0 <= 1
 0 <= x_5_1 <= 1
 0 <= x_5_2 <= 1
 0 <= x_5_3 <= 1
 0 <= x_5_4 <= 1
 0 <= x_5_6 <= 1
 0 <= x_5_7 <= 1
 0 <= x_5_8 <= 1
 0 <= x_6_0 <= 1
 0 <= x_6_1 <= 1
 0 <= x_6_2 <= 1
 0 <= x_6_3 <= 1
 0 <= x_6_4 <= 1
 0 <= x_6_5 <= 1
 0 <= x_6_7 <= 1
 0 <= x_6_8 <= 1
 0 <= x_7_0 <= 1
 0 <= x_7_1 <= 1
 0 <= x_7_2 <= 1
 0 <= x_7_3 <= 1
 0 <= x_7_4 <= 1
 0 <= x_7_5 <= 1
 0 <= x_7_6 <= 1
 0 <= x_7_8 <= 1
 0 <= x_8_0 <= 1
 0 <= x_8_1 <= 1
 0 <= x_8_2 <= 1
 0 <= x_8_3 <= 1
 0 <= x_8_4 <= 1
 0 <= x_8_5 <= 1
 0 <= x_8_6 <= 1
 0 <= x_8_7 <= 1
 0 <= y_0 <= 1
 0 <= y_1 <= 1
 0 <= y_2 <= 1
 0 <= y_3 <= 1
 0 <= y_4 <= 1
 0 <= y_5 <= 1
 0 <= y_6 <= 1
 0 <= y_7 <= 1
 0 <= y_8 <= 1
 0 <= z_0_1 <= 1
 0 <= z_0_2 <= 1
 0 <= z_0_3 <= 1
 0 <= z_0_4 <= 1
 0 <= z_0_5 <= 1
 0 <= z_0_6 <= 1
 0 <= z_0_7 <= 1
 0 <= z_0_8 <= 1
 0 <= z_1_2 <= 1
 0 <= z_1_3 <= 1
 0 <= z_1_4 <= 1
 0 <= z_1_5 <= 1
 0 <= z_1_6 <= 1
 0 <= z_1_7 <= 1
 0 <= z_1_8 <= 1
 0 <= z_2_1 <= 1
 0 <= z_2_3 <= 1
 0 <= z_2_4 <= 1
 0 <= z_2_5 <= 1
 0 <= z_2_6 <= 1
 0 <= z_2_7 <= 1
 0 <= z_2_8 <= 1
 0 <= z_3_1 <= 1
 0 <= z_3_2 <= 1
 0 <= z_3_4 <= 1
 0 <= z_3_5 <= 1
 0 <= z_3_6 <= 1
 0 <= z_3_7 <= 1
 0 <= z_3_8 <= 1
 0 <= z_4_1 <= 1
 0 <= z_4_2 <= 1
 0 <= z_4_3 <= 1
 0 <= z_4_5 <= 1
 0 <= z_4_6 <= 1
 0 <= z_4_7 <= 1
 0 <= z_4_8 <= 1
 0 <= z_5_1 <= 1
 0 <= z_5_2 <= 1
 0 <= z_5_3 <= 1
 0 <= z_5_4 <= 1
 0 <= z_5_6 <= 1
 0 <= z_5_7 <= 1
 0 <= z_5_8 <= 1
 0 <= z_6_1 <= 1
 0 <= z_6_2 <= 1
 0 <= z_6_3 <= 1
 0 <= z_6_4 <= 1
 0 <= z_6_5 <= 1
 0 <= z_6_7 <= 1
 0 <= z_6_8 <= 1
 0 <= z_7_1 <= 1
 0 <= z_7_2 <= 1
 0 <= z_7_3 <= 1
 0 <= z_7_4 <= 1
 0 <= z_7_5 <= 1
 0 <= z_7_6 <= 1
 0 <= z_7_8 <= 1
 0 <= z_8_1 <= 1
 0 <= z_8_2 <= 1
 0 <= z_8_3 <= 1
 0 <= z_8_4 <= 1
 0 <= z_8_5 <= 1
 0 <= z_8_6 <= 1
 0 <= z_8_7 <= 1
 1 <= u_1 <= 8
 1 <= u_2 <= 8
 1 <= u_3 <= 8
 1 <= u_4 <= 8
 1 <= u_5 <= 8
 1 <= u_6 <= 8
 1 <= u_7 <= 8
 1 <= u_8 <= 8
      u_0 = 0
Binaries
 x_0_1  x_0_2  x_0_3  x_0_4  x_0_5  x_0_6  x_0_7  x_0_8  x_1_0  x_1_2  x_1_3 
 x_1_4  x_1_5  x_1_6  x_1_7  x_1_8  x_2_0  x_2_1  x_2_3  x_2_4  x_2_5  x_2_6 
 x_2_7  x_2_8  x_3_0  x_3_1  x_3_2  x_3_4  x_3_5  x_3_6  x_3_7  x_3_8  x_4_0 
 x_4_1  x_4_2  x_4_3  x_4_5  x_4_6  x_4_7  x_4_8  x_5_0  x_5_1  x_5_2  x_5_3 
 x_5_4  x_5_6  x_5_7  x_5_8  x_6_0  x_6_1  x_6_2  x_6_3  x_6_4  x_6_5  x_6_7 
 x_6_8  x_7_0  x_7_1  x_7_2  x_7_3  x_7_4  x_7_5  x_7_6  x_7_8  x_8_0  x_8_1 
 x_8_2  x_8_3  x_8_4  x_8_5  x_8_6  x_8_7  y_0  y_1  y_2  y_3  y_4  y_5  y_6 
 y_7  y_8  z_0_1  z_0_2  z_0_3  z_0_4  z_0_5  z_0_6  z_0_7  z_0_8  z_1_2 
 z_1_3  z_1_4  z_1_5  z_1_6  z_1_7  z_1_8  z_2_1  z_2_3  z_2_4  z_2_5  z_2_6 
 z_2_7  z_2_8  z_3_1  z_3_2  z_3_4  z_3_5  z_3_6  z_3_7  z_3_8  z_4_1  z_4_2 
 z_4_3  z_4_5  z_4_6  z_4_7  z_4_8  z_5_1  z_5_2  z_5_3  z_5_4  z_5_6  z_5_7 
 z_5_8  z_6_1  z_6_2  z_6_3  z_6_4  z_6_5  z_6_7  z_6_8  z_7_1  z_7_2  z_7_3 
 z_7_4  z_7_5  z_7_6  z_7_8  z_8_1  z_8_2  z_8_3  z_8_4  z_8_5  z_8_6  z_8_7 
End
